
Gurobi 11.0.3 (linux64) logging started Mon Aug 25 15:12:58 2025

Set parameter LogFile to value "/home/yihong/Coding/OR_SUC/SUC_epstheta_results_bigM100000_thread4/case24_ieee_rts_theta0.1_epsilon0.1_gurobi_seed290000_num_gen100_N_WDR50_load_scaling_factor1_proposed_eps_T14quadra_cost_bc1.05.txt"
Set parameter TimeLimit to value 3600
Gurobi Optimizer version 11.0.3 build v11.0.3rc0 (linux64 - "Ubuntu 20.04.6 LTS")

CPU model: AMD EPYC 7532 32-Core Processor, instruction set [SSE2|AVX|AVX2]
Thread count: 64 physical cores, 128 logical processors, using up to 4 threads

Academic license 2399124 - for non-commercial use only - registered to yi___@ed.ac.uk
Optimize a model with 33318 rows, 17411 columns and 766758 nonzeros
Model fingerprint: 0x872334a1
Model has 1400 quadratic constraints
Variable types: 16011 continuous, 1400 integer (1400 binary)
Coefficient statistics:
  Matrix range     [3e-04, 2e+03]
  QMatrix range    [2e-03, 8e-03]
  QLMatrix range   [8e-02, 6e+01]
  Objective range  [1e+00, 1e+00]
  Bounds range     [1e+00, 1e+00]
  RHS range        [1e+00, 9e+03]
Presolve removed 27484 rows and 7562 columns
Presolve time: 0.24s
Presolved: 5834 rows, 9849 columns, 33482 nonzeros
Presolved model has 1400 quadratic constraint(s)
Variable types: 8449 continuous, 1400 integer (1400 binary)

Root relaxation: objective 1.687104e+04, 4686 iterations, 0.11 seconds (0.15 work units)

    Nodes    |    Current Node    |     Objective Bounds      |     Work
 Expl Unexpl |  Obj  Depth IntInf | Incumbent    BestBd   Gap | It/Node Time

H    0     0                    299425.29580 16871.0410  94.4%     -    0s
*    0     0               0    299425.29580 16871.0410  94.4%     -    0s
     0     0 113912.155    0  537 299425.296 113912.155  62.0%     -    0s
     0     0 274644.315    0  124 299425.296 274644.315  8.28%     -    1s
     0     0 274657.270    0   17 299425.296 274657.270  8.27%     -    1s
     0     0 274755.912    0   16 299425.296 274755.912  8.24%     -    1s
     0     0 274757.992    0   15 299425.296 274757.992  8.24%     -    1s
     0     0 274757.992    0   15 299425.296 274757.992  8.24%     -    1s
     0     2 274757.992    0   15 299425.296 274757.992  8.24%     -    1s
H  257   283                    274947.63850 274768.259  0.07%  11.2    3s
*  257   283              50    274947.63850 274768.259  0.07%  11.3    3s

Cutting planes:
  Gomory: 61
  Implied bound: 182
  MIR: 10
  Flow cover: 112
  RLT: 243
  Relax-and-lift: 118

Explored 291 nodes (16012 simplex iterations) in 4.20 seconds (3.74 work units)
Thread count was 4 (of 128 available processors)

Solution count 3: 274948 274948 299425 

Optimal solution found (tolerance 1.00e-03)
Warning: max constraint violation (1.9706e-07) exceeds tolerance
Best objective 2.749476384959e+05, best bound 2.747682588294e+05, gap 0.0652%

Gurobi 11.0.3 (linux64) logging started Mon Aug 25 15:13:04 2025

Set parameter LogFile to value "/home/yihong/Coding/OR_SUC/SUC_epstheta_results_bigM100000_thread4/case24_ieee_rts_theta0.1_epsilon0.1_gurobi_seed290000_num_gen100_N_WDR50_load_scaling_factor1_proposed_eps_T14quadra_cost_bc1.05.txt"
Set parameter TimeLimit to value 3600
Gurobi Optimizer version 11.0.3 build v11.0.3rc0 (linux64 - "Ubuntu 20.04.6 LTS")

CPU model: AMD EPYC 7532 32-Core Processor, instruction set [SSE2|AVX|AVX2]
Thread count: 64 physical cores, 128 logical processors, using up to 4 threads

Academic license 2399124 - for non-commercial use only - registered to yi___@ed.ac.uk
Optimize a model with 33318 rows, 17412 columns and 771047 nonzeros
Model fingerprint: 0xd33b94f8
Model has 1401 quadratic constraints
Variable types: 16012 continuous, 1400 integer (1400 binary)
Coefficient statistics:
  Matrix range     [3e-04, 2e+03]
  QMatrix range    [2e-03, 5e+01]
  QLMatrix range   [8e-02, 6e+01]
  Objective range  [1e+00, 1e+00]
  Bounds range     [1e-01, 1e+00]
  RHS range        [4e-01, 3e+05]
  QRHS range       [5e+00, 5e+00]
Presolve removed 24858 rows and 6243 columns
Presolve time: 0.28s
Presolved: 9862 rows, 12569 columns, 50900 nonzeros
Presolved model has 1400 quadratic constraint(s)
Presolved model has 1 bilinear constraint(s)

Solving non-convex MIQCP

Variable types: 11167 continuous, 1402 integer (1402 binary)

Root relaxation: objective 1.444103e-03, 14989 iterations, 1.33 seconds (1.56 work units)

    Nodes    |    Current Node    |     Objective Bounds      |     Work
 Expl Unexpl |  Obj  Depth IntInf | Incumbent    BestBd   Gap | It/Node Time

     0     0    0.00144    0   19          -    0.00144      -     -    2s
     0     0    0.00145    0   16          -    0.00145      -     -    2s
H    0     0                       0.0095203    0.00145  84.8%     -    3s
     0     0    0.00819    0   16    0.00952    0.00819  14.0%     -    3s
     0     0    0.00820    0   16    0.00952    0.00820  13.9%     -    3s
     0     0    0.00820    0   16    0.00952    0.00820  13.9%     -    3s
     0     0    0.00820    0   16    0.00952    0.00820  13.9%     -    3s
     0     0    0.00820    0   16    0.00952    0.00820  13.9%     -    4s
     0     0    0.00820    0   16    0.00952    0.00820  13.9%     -    4s
     0     0    0.00820    0   16    0.00952    0.00820  13.9%     -    4s
     0     0    0.00820    0   16    0.00952    0.00820  13.9%     -    4s
     0     0    0.00821    0   16    0.00952    0.00821  13.7%     -    4s
     0     2    0.00821    0   16    0.00952    0.00821  13.7%     -    5s
   142   165    0.00825   22   12    0.00952    0.00821  13.7%  32.8   10s
H  205   208                       0.0084495    0.00821  2.79%  27.7   10s
*  205   208              38       0.0084495    0.00821  2.79%  27.7   10s
   451   321    0.00824    6   15    0.00845    0.00821  2.79%  19.2   15s
   457   325    0.00841   13   28    0.00845    0.00836  1.09%  18.9   20s
   473   336    0.00836   11   29    0.00845    0.00836  1.05%  18.3   26s
   481   346    0.00836   12   54    0.00845    0.00836  1.05%  59.4   30s
H  591   381                       0.0084333    0.00836  0.82%  59.1   35s
   983   349    0.00838   30   28    0.00843    0.00837  0.80%  46.9   40s
  1570   536     cutoff   59         0.00843    0.00837  0.72%  36.0   45s
  2251   971    0.00840   65   37    0.00843    0.00838  0.68%  30.5   50s
  3124  1215     cutoff   17         0.00843    0.00839  0.56%  28.2   55s
  3894  1469    0.00840   63   34    0.00843    0.00839  0.52%  29.1   60s
  4571  1503     cutoff   17         0.00843    0.00840  0.43%  30.0   66s
  5117  1804    0.00842   44   23    0.00843    0.00840  0.40%  33.9   71s
  5774  2456    0.00842   41   38    0.00843    0.00840  0.40%  33.6   75s
* 5978  1251             152       0.0084161    0.00840  0.19%  34.0   75s
  6579  1369    0.00840   17   38    0.00842    0.00840  0.17%  32.2   80s
* 6927  1029             266       0.0084137    0.00840  0.14%  30.8   80s
* 7757   660             269       0.0084088    0.00840  0.06%  28.9   83s

Cutting planes:
  Gomory: 2
  Lift-and-project: 15
  Implied bound: 70
  MIR: 92
  Mixing: 3
  Flow cover: 47
  RLT: 11
  Relax-and-lift: 1
  PSD: 3

Explored 7791 nodes (240441 simplex iterations) in 83.82 seconds (110.11 work units)
Thread count was 4 (of 128 available processors)

Solution count 6: 0.00840881 0.00841369 0.00841608 ... 0.00952026

Optimal solution found (tolerance 1.00e-03)
Warning: max constraint violation (1.3970e-09) exceeds tolerance
Best objective 8.408813489006e-03, best bound 8.403479316356e-03, gap 0.0634%
